NAME nitrogen fixation_srl_ilp
* Max problem is converted into Min one
ROWS
 N  OBJ
 L  constraint1_6340
 L  constraint1_1910
 L  constraint1_880
 L  constraint1_4780
 L  constraint1_6800
 L  constraint1_966
 L  constraint1_964
 L  constraint1_965
 L  constraint1_961
 L  constraint1_960
 L  constraint1_962
 L  constraint1_4610
 L  constraint1_370
 L  constraint2_6340
 L  constraint2_6341
 L  constraint2_6342
 L  constraint2_6343
 L  constraint2_1910
 L  constraint2_1911
 L  constraint2_1912
 L  constraint2_1913
 L  constraint2_880
 L  constraint2_881
 L  constraint2_882
 L  constraint2_883
 L  constraint2_4780
 L  constraint2_4781
 L  constraint2_4782
 L  constraint2_4783
 L  constraint2_6800
 L  constraint2_6801
 L  constraint2_6802
 L  constraint2_6803
 L  constraint2_960
 L  constraint2_961
 L  constraint2_962
 L  constraint2_963
 L  constraint2_4610
 L  constraint2_4611
 L  constraint2_4612
 L  constraint2_4613
 L  constraint2_370
 L  constraint2_371
 L  constraint2_372
 L  constraint2_373
COLUMNS
    MARKER    'MARKER'                 'INTORG'
    Z_634_0_0  OBJ       -4.4095157231539340e-04
    Z_634_0_0  constraint1_6340  1
    Z_634_0_0  constraint2_6340  1
    Z_634_0_1  OBJ       -2.2369940178331338e-03
    Z_634_0_1  constraint1_6340  1
    Z_634_0_1  constraint2_6341  1
    Z_634_0_2  OBJ       -8.7337691111996596e-01
    Z_634_0_2  constraint1_6340  1
    Z_634_0_2  constraint2_6342  1
    Z_634_0_3  OBJ       -1.2213082419287287e-03
    Z_634_0_3  constraint1_6340  1
    Z_634_0_3  constraint2_6343  1
    Z_634_0_4  OBJ       -2.2723835047956907e-02
    Z_634_0_4  constraint1_6340  1
    Z_191_0_0  OBJ       -3.0335783063082880e-04
    Z_191_0_0  constraint1_1910  1
    Z_191_0_0  constraint2_1910  1
    Z_191_0_1  OBJ       -1.0818882560386985e-03
    Z_191_0_1  constraint1_1910  1
    Z_191_0_1  constraint2_1911  1
    Z_191_0_2  OBJ       -8.0726648072528095e-01
    Z_191_0_2  constraint1_1910  1
    Z_191_0_2  constraint2_1912  1
    Z_191_0_3  OBJ       -1.1675014091921322e-02
    Z_191_0_3  constraint1_1910  1
    Z_191_0_3  constraint2_1913  1
    Z_191_0_4  OBJ       -7.9673259096128282e-02
    Z_191_0_4  constraint1_1910  1
    Z_88_0_0  OBJ       -2.7246066707235702e-04
    Z_88_0_0  constraint1_880  1
    Z_88_0_0  constraint2_880  1
    Z_88_0_1  OBJ       -9.0815185744292748e-04
    Z_88_0_1  constraint1_880  1
    Z_88_0_1  constraint2_881  1
    Z_88_0_2  OBJ       -8.0597607837915075e-01
    Z_88_0_2  constraint1_880  1
    Z_88_0_2  constraint2_882  1
    Z_88_0_3  OBJ       -9.8721690540515294e-04
    Z_88_0_3  constraint1_880  1
    Z_88_0_3  constraint2_883  1
    Z_88_0_4  OBJ       -9.1856092190928773e-02
    Z_88_0_4  constraint1_880  1
    Z_478_0_0  OBJ       -2.6786967541918169e-04
    Z_478_0_0  constraint1_4780  1
    Z_478_0_0  constraint2_4780  1
    Z_478_0_1  OBJ       -9.5002282420246313e-04
    Z_478_0_1  constraint1_4780  1
    Z_478_0_1  constraint2_4781  1
    Z_478_0_2  OBJ       -8.0134243538043226e-01
    Z_478_0_2  constraint1_4780  1
    Z_478_0_2  constraint2_4782  1
    Z_478_0_3  OBJ       -6.6095215160208642e-03
    Z_478_0_3  constraint1_4780  1
    Z_478_0_3  constraint2_4783  1
    Z_478_0_4  OBJ       -9.0830150603925255e-02
    Z_478_0_4  constraint1_4780  1
    Z_680_0_0  OBJ       -1.6388126698311980e-04
    Z_680_0_0  constraint1_6800  1
    Z_680_0_0  constraint2_6800  1
    Z_680_0_1  OBJ       -4.8718460272872220e-03
    Z_680_0_1  constraint1_6800  1
    Z_680_0_1  constraint2_6801  1
    Z_680_0_2  OBJ       -8.7925739721970642e-01
    Z_680_0_2  constraint1_6800  1
    Z_680_0_2  constraint2_6802  1
    Z_680_0_3  OBJ       -1.1035358431132987e-03
    Z_680_0_3  constraint1_6800  1
    Z_680_0_3  constraint2_6803  1
    Z_680_0_4  OBJ       -1.4603339642909857e-02
    Z_680_0_4  constraint1_6800  1
    Z_96_6_0  OBJ       -3.2591965286203878e-01
    Z_96_6_0  constraint1_966  1
    Z_96_6_0  constraint2_960  1
    Z_96_6_1  OBJ       -7.2505046596057377e-03
    Z_96_6_1  constraint1_966  1
    Z_96_6_1  constraint2_961  1
    Z_96_6_2  OBJ       -2.7044819375638216e-02
    Z_96_6_2  constraint1_966  1
    Z_96_6_2  constraint2_962  1
    Z_96_6_3  OBJ       -7.8307144077836253e-03
    Z_96_6_3  constraint1_966  1
    Z_96_6_3  constraint2_963  1
    Z_96_6_4  OBJ       -5.3195430869493376e-01
    Z_96_6_4  constraint1_966  1
    Z_96_4_0  OBJ       -4.1829409912824602e-03
    Z_96_4_0  constraint1_964  1
    Z_96_4_0  constraint2_960  1
    Z_96_4_1  OBJ       -3.9173972277659221e-04
    Z_96_4_1  constraint1_964  1
    Z_96_4_1  constraint2_961  1
    Z_96_4_2  OBJ       -1.8772817983504969e-02
    Z_96_4_2  constraint1_964  1
    Z_96_4_2  constraint2_962  1
    Z_96_4_3  OBJ       -3.4126843626721533e-02
    Z_96_4_3  constraint1_964  1
    Z_96_4_3  constraint2_963  1
    Z_96_4_4  OBJ       -8.4252565767571452e-01
    Z_96_4_4  constraint1_964  1
    Z_96_5_0  OBJ       -7.9196155748589758e-01
    Z_96_5_0  constraint1_965  1
    Z_96_5_0  constraint2_960  1
    Z_96_5_1  OBJ       -1.0577365535690044e-02
    Z_96_5_1  constraint1_965  1
    Z_96_5_1  constraint2_961  1
    Z_96_5_2  OBJ       -2.1982514230132352e-02
    Z_96_5_2  constraint1_965  1
    Z_96_5_2  constraint2_962  1
    Z_96_5_3  OBJ       -1.1222931944344103e-02
    Z_96_5_3  constraint1_965  1
    Z_96_5_3  constraint2_963  1
    Z_96_5_4  OBJ       -6.4255630803935912e-02
    Z_96_5_4  constraint1_965  1
    Z_96_1_0  OBJ       -4.4307660327568249e-04
    Z_96_1_0  constraint1_961  1
    Z_96_1_0  constraint2_960  1
    Z_96_1_1  OBJ       -6.0800855728946820e-04
    Z_96_1_1  constraint1_961  1
    Z_96_1_1  constraint2_961  1
    Z_96_1_2  OBJ       -6.9164469596439204e-01
    Z_96_1_2  constraint1_961  1
    Z_96_1_2  constraint2_962  1
    Z_96_1_3  OBJ       -6.8256232719163810e-04
    Z_96_1_3  constraint1_961  1
    Z_96_1_3  constraint2_963  1
    Z_96_1_4  OBJ       -2.0662165654785114e-01
    Z_96_1_4  constraint1_961  1
    Z_96_0_0  OBJ       -4.4307660327568249e-04
    Z_96_0_0  constraint1_960  1
    Z_96_0_0  constraint2_960  1
    Z_96_0_1  OBJ       -6.0800855728946820e-04
    Z_96_0_1  constraint1_960  1
    Z_96_0_1  constraint2_961  1
    Z_96_0_2  OBJ       -6.9164469596439204e-01
    Z_96_0_2  constraint1_960  1
    Z_96_0_2  constraint2_962  1
    Z_96_0_3  OBJ       -6.8256232719163810e-04
    Z_96_0_3  constraint1_960  1
    Z_96_0_3  constraint2_963  1
    Z_96_0_4  OBJ       -2.0662165654785114e-01
    Z_96_0_4  constraint1_960  1
    Z_96_2_0  OBJ       -1.1995444199071320e-01
    Z_96_2_0  constraint1_962  1
    Z_96_2_0  constraint2_960  1
    Z_96_2_1  OBJ       -3.8173389244457130e-02
    Z_96_2_1  constraint1_962  1
    Z_96_2_1  constraint2_961  1
    Z_96_2_2  OBJ       -1.6962837650782005e-03
    Z_96_2_2  constraint1_962  1
    Z_96_2_2  constraint2_962  1
    Z_96_2_3  OBJ       -4.6308159123969250e-01
    Z_96_2_3  constraint1_962  1
    Z_96_2_3  constraint2_963  1
    Z_96_2_4  OBJ       -2.7709429376005906e-01
    Z_96_2_4  constraint1_962  1
    Z_461_0_0  OBJ       -4.4307660327568249e-04
    Z_461_0_0  constraint1_4610  1
    Z_461_0_0  constraint2_4610  1
    Z_461_0_1  OBJ       -6.0800855728946820e-04
    Z_461_0_1  constraint1_4610  1
    Z_461_0_1  constraint2_4611  1
    Z_461_0_2  OBJ       -6.9164469596439204e-01
    Z_461_0_2  constraint1_4610  1
    Z_461_0_2  constraint2_4612  1
    Z_461_0_3  OBJ       -6.8256232719163810e-04
    Z_461_0_3  constraint1_4610  1
    Z_461_0_3  constraint2_4613  1
    Z_461_0_4  OBJ       -2.0662165654785114e-01
    Z_461_0_4  constraint1_4610  1
    Z_37_0_0  OBJ       -4.7580561527411929e-04
    Z_37_0_0  constraint1_370  1
    Z_37_0_0  constraint2_370  1
    Z_37_0_1  OBJ       -6.7189694200466010e-04
    Z_37_0_1  constraint1_370  1
    Z_37_0_1  constraint2_371  1
    Z_37_0_2  OBJ       -6.8596487716511056e-01
    Z_37_0_2  constraint1_370  1
    Z_37_0_2  constraint2_372  1
    Z_37_0_3  OBJ       -6.9950582603115429e-04
    Z_37_0_3  constraint1_370  1
    Z_37_0_3  constraint2_373  1
    Z_37_0_4  OBJ       -2.1218791445157958e-01
    Z_37_0_4  constraint1_370  1
    MARKER    'MARKER'                 'INTEND'
RHS
    RHS1      constraint1_6340  1
    RHS1      constraint1_1910  1
    RHS1      constraint1_880  1
    RHS1      constraint1_4780  1
    RHS1      constraint1_6800  1
    RHS1      constraint1_966  1
    RHS1      constraint1_964  1
    RHS1      constraint1_965  1
    RHS1      constraint1_961  1
    RHS1      constraint1_960  1
    RHS1      constraint1_962  1
    RHS1      constraint1_4610  1
    RHS1      constraint1_370  1
    RHS1      constraint2_6340  1
    RHS1      constraint2_6341  1
    RHS1      constraint2_6342  1
    RHS1      constraint2_6343  1
    RHS1      constraint2_1910  1
    RHS1      constraint2_1911  1
    RHS1      constraint2_1912  1
    RHS1      constraint2_1913  1
    RHS1      constraint2_880  1
    RHS1      constraint2_881  1
    RHS1      constraint2_882  1
    RHS1      constraint2_883  1
    RHS1      constraint2_4780  1
    RHS1      constraint2_4781  1
    RHS1      constraint2_4782  1
    RHS1      constraint2_4783  1
    RHS1      constraint2_6800  1
    RHS1      constraint2_6801  1
    RHS1      constraint2_6802  1
    RHS1      constraint2_6803  1
    RHS1      constraint2_960  1
    RHS1      constraint2_961  1
    RHS1      constraint2_962  1
    RHS1      constraint2_963  1
    RHS1      constraint2_4610  1
    RHS1      constraint2_4611  1
    RHS1      constraint2_4612  1
    RHS1      constraint2_4613  1
    RHS1      constraint2_370  1
    RHS1      constraint2_371  1
    RHS1      constraint2_372  1
    RHS1      constraint2_373  1
BOUNDS
 UP BND1      Z_634_0_0  1
 UP BND1      Z_634_0_1  1
 UP BND1      Z_634_0_2  1
 UP BND1      Z_634_0_3  1
 UP BND1      Z_634_0_4  1
 UP BND1      Z_191_0_0  1
 UP BND1      Z_191_0_1  1
 UP BND1      Z_191_0_2  1
 UP BND1      Z_191_0_3  1
 UP BND1      Z_191_0_4  1
 UP BND1      Z_88_0_0  1
 UP BND1      Z_88_0_1  1
 UP BND1      Z_88_0_2  1
 UP BND1      Z_88_0_3  1
 UP BND1      Z_88_0_4  1
 UP BND1      Z_478_0_0  1
 UP BND1      Z_478_0_1  1
 UP BND1      Z_478_0_2  1
 UP BND1      Z_478_0_3  1
 UP BND1      Z_478_0_4  1
 UP BND1      Z_680_0_0  1
 UP BND1      Z_680_0_1  1
 UP BND1      Z_680_0_2  1
 UP BND1      Z_680_0_3  1
 UP BND1      Z_680_0_4  1
 UP BND1      Z_96_6_0  1
 UP BND1      Z_96_6_1  1
 UP BND1      Z_96_6_2  1
 UP BND1      Z_96_6_3  1
 UP BND1      Z_96_6_4  1
 UP BND1      Z_96_4_0  1
 UP BND1      Z_96_4_1  1
 UP BND1      Z_96_4_2  1
 UP BND1      Z_96_4_3  1
 UP BND1      Z_96_4_4  1
 UP BND1      Z_96_5_0  1
 UP BND1      Z_96_5_1  1
 UP BND1      Z_96_5_2  1
 UP BND1      Z_96_5_3  1
 UP BND1      Z_96_5_4  1
 UP BND1      Z_96_1_0  1
 UP BND1      Z_96_1_1  1
 UP BND1      Z_96_1_2  1
 UP BND1      Z_96_1_3  1
 UP BND1      Z_96_1_4  1
 UP BND1      Z_96_0_0  1
 UP BND1      Z_96_0_1  1
 UP BND1      Z_96_0_2  1
 UP BND1      Z_96_0_3  1
 UP BND1      Z_96_0_4  1
 UP BND1      Z_96_2_0  1
 UP BND1      Z_96_2_1  1
 UP BND1      Z_96_2_2  1
 UP BND1      Z_96_2_3  1
 UP BND1      Z_96_2_4  1
 UP BND1      Z_461_0_0  1
 UP BND1      Z_461_0_1  1
 UP BND1      Z_461_0_2  1
 UP BND1      Z_461_0_3  1
 UP BND1      Z_461_0_4  1
 UP BND1      Z_37_0_0  1
 UP BND1      Z_37_0_1  1
 UP BND1      Z_37_0_2  1
 UP BND1      Z_37_0_3  1
 UP BND1      Z_37_0_4  1
ENDATA
